n = 24;
rank =    [8,5,5,5,5,5,5,5,5,5,7,5,5,5,5,5,5,5,5,5,5,7,5,5];
ability = [4,1,0,1,2,5,3,7,2,3,4,1,8,2,5,3,2,4,5,2,1,9,4,2];
m = 10; 
beauty =  [7,7,7,8,7,8,8,7,7,7];
speed =   [6,4,5,3,4,4,2,1,3,5];

enjoy = [| 3,4,5,7,3,5,3,2,6,3
         | 1,6,3,4,8,4,2,3,5,1
         | 9,6,3,2,4,6,3,1,3,6
         | 4,4,4,4,4,4,4,4,4,4
         | 1,6,3,4,8,3,2,3,4,3
         | 9,6,2,3,4,9,6,2,3,4
         | 2,3,4,3,3,1,2,3,2,3
         | 8,8,8,8,8,8,8,8,8,1
         | 9,6,2,3,4,4,5,3,4,4
         | 1,3,4,2,1,-1,-1,-1,-1,-1
         | 1,6,2,3,4,5,3,2,1,3
         | 1,6,3,4,8,6,3,1,3,6
         | 5,3,2,9,1,5,4,2,2,7
         | 3,5,2,3,7,3,2,1,2,5
         | 4,3,2,1,-1,8,8,8,5,5
         | -1,-1,4,3,-1,5,5,5,5,5
         | 6,-1,-1,-1,-1,6,-2,1,2,3
         | 2,2,2,2,2,2,2,2,2,2
         | 1,-1,1,-1,8,-1,-1,-1,-1,-1
         | 3,2,7,4,3,3,1,3,6,3
         | 4,3,5,2,1,4,3,6,2,8
         | 3,1,2,3,1,7,6,7,6,7
         | 4,4,2,2,2,-1,-1,-1,-1,-1
         | 3,3,3,1,1,-1,-1,-1,-1,-1
         |];
